(assert (forall ((pkt_0_4_6_0  Int  )(state_group_0_state_0_5_7_0  Int  )(state_group_0_state_1_6_8_0  Int  )) (let ((_n0 state_group_0_state_0_5_7_0 ))
(let ((_n1 2 ))
(let ((_n2 (ite (=  _n0  1)  _n1   _n0  ) ))
(let ((_n3 state_group_0_state_1_6_8_0 ))
(let ((_n4 false ))
(let ((_n5 (ite (=  _n0  1)  (ite  _n4  1 0)   _n3  ) ))
(let ((_n6 3 ))
(let ((_n7 (ite (=  _n5  999)  _n6   _n2  ) ))
(let ((_n8 (ite (=  _n2  2)  _n7   _n2  ) ))
(let ((_n9 (=   _n0   _n1 ) ))
(let ((_n10 (not  _n9 ) ))
(let ((_n11 (ite (=  _n0  2)  _n0   (ite  _n4  1 0)  ) ))
(let ((_n12 (=   _n11   (ite  _n4  1 0) ) ))
(let ((_n13 (not  _n12 ) ))
(let ((_n14 (and   _n9   _n13 ) ))
(let ((_n15 999 ))
(let ((_n16 (and   _n14   _n9 ) ))
(let ((_n17 (ite  _n16   _n3   (ite  _n4  1 0)  ) ))
(let ((_n18 (=   _n17   _n15 ) ))
(let ((_n19 (and   _n16   _n18 ) ))
(let ((_n20 (and   _n19   _n16 ) ))
(let ((_n21 (ite  _n20   _n15   (ite  _n4  1 0)  ) ))
(let ((_n22 (-  _n21 )))
(let ((_n23 1000 ))
(let ((_n24 (ite  _n20   _n23   (ite  _n4  1 0)  ) ))
(let ((_n25 (+   _n24   _n22 ) ))
(let ((_n26 (ite  _n20   _n25   (ite  _n4  1 0)  ) ))
(let ((_n27 (+   _n0   _n26 ) ))
(let ((_n28 (ite (=  (ite  _n19  1 0)  1)  _n27   _n0  ) ))
(let ((_n29 (ite (=  (ite  _n14  1 0)  1)  _n28   _n0  ) ))
(let ((_n30 true ))
(let ((_n31 (ite (=  _n0  2)  (ite  _n4  1 0)   _n0  ) ))
(let ((_n32 (=   _n31   (ite  _n30  1 0) ) ))
(let ((_n33 (ite (=  _n0  2)  _n4   _n32  ) ))
(let ((_n34 (and   _n33   _n10 ) ))
(let ((_n35 (+   (ite  _n34  1 0)   (ite  _n34  1 0) ) ))
(let ((_n36 (ite  _n34   _n35   (ite  _n4  1 0)  ) ))
(let ((_n37 (ite  _n34   (ite  _n4  1 0)   _n0  ) ))
(let ((_n38 (+   _n37   _n36 ) ))
(let ((_n39 (ite (=  (ite  _n33  1 0)  1)  _n38   _n0  ) ))
(let ((_n40 (ite (=  (ite  _n10  1 0)  1)  _n39   _n29  ) ))
(let ((_n41 (=   _n40   _n8 ) ))
(let ((_n43 (+   _n5   (ite  _n30  1 0) ) ))
(let ((_n44 (ite (=  _n2  2)  _n43   _n5  ) ))
(let ((_n45 (not  _n16 ) ))
(let ((_n46 (or   _n19   _n45 ) ))
(let ((_n47 (ite  _n46   (ite  _n4  1 0)   _n15  ) ))
(let ((_n48 (-  _n47 )))
(let ((_n49 (ite  _n46   (ite  _n4  1 0)   _n23  ) ))
(let ((_n50 (+   _n49   _n48 ) ))
(let ((_n51 (ite  _n46   (ite  _n4  1 0)   _n50  ) ))
(let ((_n52 (+   _n3   _n51 ) ))
(let ((_n53 pkt_0_4_6_0 ))
(let ((_n54 (ite  _n20   _n53   (ite  _n4  1 0)  ) ))
(let ((_n55 (+   (ite  _n20  1 0)   _n54 ) ))
(let ((_n56 (ite  _n20   _n55   (ite  _n4  1 0)  ) ))
(let ((_n57 (+   _n3   _n56 ) ))
(let ((_n58 (ite (=  (ite  _n19  1 0)  1)  _n57   _n52  ) ))
(let ((_n59 (ite (=  (ite  _n14  1 0)  1)  _n58   _n3  ) ))
(let ((_n60 (ite  _n34   (ite  _n4  1 0)   _n3  ) ))
(let ((_n61 (+   _n60   (ite  _n34  1 0) ) ))
(let ((_n62 (ite (=  (ite  _n33  1 0)  1)  _n61   _n3  ) ))
(let ((_n63 (ite (=  (ite  _n10  1 0)  1)  _n62   _n59  ) ))
(let ((_n64 (=   _n63   _n44 ) ))
(let ((_n66 (ite (=  _n53  0)  _n53   (ite  _n4  1 0)  ) ))
(let ((_n67 (ite (=  _n53  0)  _n66   _n53  ) ))
(let ((_n68 (=   _n67   _n53 ) ))
(implies  (and (and (>= state_group_0_state_1_6_8_0 0) (< state_group_0_state_1_6_8_0 1024 ))  (and (and (>= state_group_0_state_0_5_7_0 0) (< state_group_0_state_0_5_7_0 1024 ))  (and (>= pkt_0_4_6_0 0) (< pkt_0_4_6_0 1024 )) ) )   (and  _n41  _n64  _n68 )  ))))))))))))))))))))))))))))))))))))))))))))))))))))))))))))))))))))))
(check-sat)
(get-model)
(exit)